row=9;
column=9;

Board=[|9,4,0,5,0,0,8,6,7|7,8,6,3,4,9,1,5,0|5,1,2,7,8,6,0,0,9|0,9,4,2,1,0,7,3,8|2,3,8,4,9,0,5,0,6|1,7,5,8,0,3,2,0,0|4,6,7,1,3,2,9,8,5|0,0,0,9,5,0,6,7,0|0,5,0,6,7,8,4,0,1|];
OE=[|1,0,1,1,0,1,0,0,1|1,0,0,1,0,1,1,1,0|1,1,0,1,0,0,1,0,1|0,1,0,0,1,1,1,1,0|0,1,0,0,1,1,1,1,0|1,1,1,0,0,1,0,1,0|0,0,1,1,1,0,1,0,1|0,0,1,1,1,0,0,1,1|1,1,1,0,1,0,0,0,1|];
